LIMIT = 7500;
ITEMS = {
brocolli, beans, cabbage, carrot, celery, 
cucumber, fennel, kale, lettuce, okra,
onion, rhubarb, radish, spinach, tomato 
};
WEIGHT = [ 700, 730, 770, 800, 820, 870, 900, 940, 980, 1060, 1100, 1130, 1150, 1180, 1200];
KCAL = [135, 139, 149, 150, 156, 163, 173, 184, 192, 201, 210, 214, 221, 229, 240]; 
 